************************************************************************
file with basedata            : cr563_.bas
initial value random generator: 1755884781
************************************************************************
projects                      :  1
jobs (incl. supersource/sink ):  18
horizon                       :  134
RESOURCES
  - renewable                 :  5   R
  - nonrenewable              :  2   N
  - doubly constrained        :  0   D
************************************************************************
PROJECT INFORMATION:
pronr.  #jobs rel.date duedate tardcost  MPM-Time
    1     16      0       22       10       22
************************************************************************
PRECEDENCE RELATIONS:
jobnr.    #modes  #successors   successors
   1        1          3           2   3   4
   2        3          3           8  10  12
   3        3          3           5   7  12
   4        3          3          10  11  17
   5        3          3           6   9  13
   6        3          2          10  14
   7        3          1           8
   8        3          3           9  13  14
   9        3          1          15
  10        3          2          15  16
  11        3          3          12  13  15
  12        3          1          16
  13        3          1          16
  14        3          1          17
  15        3          1          18
  16        3          1          18
  17        3          1          18
  18        1          0        
************************************************************************
REQUESTS/DURATIONS:
jobnr. mode duration  R 1  R 2  R 3  R 4  R 5  N 1  N 2
------------------------------------------------------------------------
  1      1     0       0    0    0    0    0    0    0
  2      1     8       8    5   10   10    6    6    4
         2     8       7    5   10    9    6    7    5
         3     9       5    4    7    8    5    5    3
  3      1     8       5    6    4    7    6    5    8
         2     8      10    3    6    9    7    7    8
         3     8       1    4    2   10    5    5    8
  4      1     1      10    5    6    8    8    7    4
         2     3       7    4    4    4    8    7    4
         3    10       5    4    2    4    6    6    3
  5      1     6       7    7    9    8    6    2    6
         2     7       4    4    6    4    6    2    5
         3     9       4    1    6    3    5    2    4
  6      1     3      10    6    5    3    6    3    7
         2     3      10    5    6    3    9    3    6
         3     8      10    5    5    3    6    3    2
  7      1     4       9    9    8    6    5    3   10
         2     7       8    6    8    5    3    3   10
         3    10       5    4    7    5    2    3    9
  8      1     3       1    7    6    3    7    5    7
         2     4       1    5    5    3    4    5    5
         3    10       1    2    5    3    3    5    2
  9      1     3      10    8    3    8    8    5    9
         2     3      10    7    3    7    8    6    9
         3     5      10    7    3    5    8    3    8
 10      1     2       4    5    6    7    5    8    9
         2     6       4    4    5    7    5    7    8
         3     9       4    2    3    7    4    2    6
 11      1     4      10    2    3    5    4    5    7
         2     7      10    2    3    4    3    5    4
         3    10      10    2    3    4    3    5    2
 12      1     3       7    9    8    8    8    7    5
         2     5       6    6    6    8    8    7    2
         3     8       5    5    2    4    7    7    1
 13      1     1       9    7    7    8    9    8    3
         2     5       6    5    7    4    5    7    2
         3     6       4    4    6    3    2    6    2
 14      1     2       9    9    4    1    8    6   10
         2     2       9    9    4    1    8    7    9
         3     6       9    9    3    1    6    5    8
 15      1     1       1    5    6    6    9   10    8
         2     6       1    4    3    5    9    8    5
         3    10       1    3    3    4    9    7    3
 16      1     1       3    8    2    2    8    6    9
         2     4       3    5    2    2    8    6    9
         3     8       2    4    1    2    8    5    8
 17      1     3       9    2    4    7    5    8   10
         2     5       8    2    4    6    4    8    8
         3     8       8    2    4    2    4    8    8
 18      1     0       0    0    0    0    0    0    0
************************************************************************
RESOURCEAVAILABILITIES:
  R 1  R 2  R 3  R 4  R 5  N 1  N 2
   24   21   21   23   22   99  117
************************************************************************
